
<<< setup


<<< generate

Version identifier: 22.1.1.0 | 2022-11-28 | 9160aff4d
CPXPARAM_TimeLimit                               1800
Found incumbent of value 0.000000 after 0.01 sec. (11.04 ticks)
Tried aggregator 3 times.
Aggregator has done 1660 substitutions...
MIP Presolve eliminated 1361495 rows and 7683 columns.
MIP Presolve modified 12904 coefficients.
Aggregator did 1660 substitutions.
Reduced MIP has 342250 rows, 41857 columns, and 1451568 nonzeros.
Reduced MIP has 41857 binaries, 0 generals, 0 SOSs, and 0 indicators.
Presolve time = 11.86 sec. (34398.83 ticks)
Probing time = 0.10 sec. (57.55 ticks)
Tried aggregator 3 times.
MIP Presolve eliminated 584 rows and 6 columns.
MIP Presolve modified 6 coefficients.
Aggregator did 12901 substitutions.
Reduced MIP has 328765 rows, 28950 columns, and 1417882 nonzeros.
Reduced MIP has 28950 binaries, 0 generals, 0 SOSs, and 0 indicators.
Presolve time = 1.26 sec. (2989.35 ticks)
Probing time = 0.07 sec. (52.84 ticks)
Tried aggregator 1 time.
Detecting symmetries...
MIP Presolve eliminated 2 rows and 0 columns.
Reduced MIP has 328763 rows, 28950 columns, and 1417822 nonzeros.
Reduced MIP has 28950 binaries, 0 generals, 0 SOSs, and 0 indicators.
Presolve time = 0.85 sec. (2100.08 ticks)
Probing time = 0.07 sec. (51.50 ticks)
Clique table members: 365648.
MIP emphasis: balance optimality and feasibility.
MIP search method: dynamic search.
Parallel mode: deterministic, using up to 8 threads.
Root relaxation solution time = 4379.16 sec. (288861.45 ticks)

        Nodes                                         Cuts/
   Node  Left     Objective  IInf  Best Integer    Best Bound    ItCnt     Gap

*     0+    0                            0.0000    30700.0000              --- 
*     0+    0                           25.0000    30700.0000              --- 
*     0+    0                           26.0000    30700.0000              --- 
      0     0   1.00000e+37     0       26.0000    30700.0000   109094     --- 

Root node processing (before b&c):
  Real time             = 4393.87 sec. (329395.06 ticks)
Parallel b&c, 8 threads:
  Real time             =    0.00 sec. (0.00 ticks)
  Sync time (average)   =    0.00 sec.
  Wait time (average)   =    0.00 sec.
                          ------------
Total (root+branch&cut) = 4393.87 sec. (329395.06 ticks)

<<< solve


OBJECTIVE: 26

<<< post process


<<< done

